100 100702

 530 194
442 158
172 465
16 104
961 34
752 102
898 639
56 726
591 325
103 944
284 808
705 691
517 592
618 141
278 474
885 31
612 884
750 935
269 63
833 560
400 87
503 304
86 61
320 396
32 334
336 952
51 786
79 411
698 284
174 466
948 80
618 692
501 784
575 77
76 954
316 733
833 905
373 794
81 540
873 361
640 77
695 509
755 164
697 9
732 175
71 462
969 307
854 588
666 245
757 122
652 185
71 32
46 998
47 963
591 762
422 569
149 310
910 372
130 656
456 830
639 596
877 992
631 56
966 791
997 273
869 464
505 678
929 456
774 979
244 670
474 249
382 698
103 994
489 78
37 534
654 108
549 273
520 764
743 15
333 370
397 304
296 672
107 205
860 981
954 113
530 680
825 865
83 253
934 441
288 186
982 859
706 227
461 528
215 668
281 354
732 623
954 1
459 553
801 560
344 927
